unknown
(model
; cardinality of BoundSet is 2
(declare-sort BoundSet 0)
; rep: @uc_BoundSet_0
; rep: @uc_BoundSet_1
; cardinality of UnboundSet is 1
(declare-sort UnboundSet 0)
(declare-fun groundTerm_3 () UnboundSet)
(define-fun IsBrownAndWhite ((BOUND_VARIABLE_481 BoundSet)) Bool true)
(define-fun IsChainedUp ((BOUND_VARIABLE_481 BoundSet)) Bool true)
(define-fun IsNearRedChair ((BOUND_VARIABLE_481 BoundSet)) Bool true)
(define-fun IsChainedTo ((BOUND_VARIABLE_493 BoundSet) (BOUND_VARIABLE_494 BoundSet)) Bool false)
)
unsat
(error "Cannot get model unless immediately preceded by SAT/NOT_ENTAILED or UNKNOWN response.")
